Route #1: 10 32 12 2 13 23 48 39 34 21 46 37 38 22 6 9
Route #2: 29 3 41 33 7 35 50 18 45 16 20 49
Route #3: 26 43 4 17 25 8 44 11 19 15 31 28
Route #4: 5 24 42 30 36 40 47 27 14
Route #5: 1
Route #6: 
Route #7: 
cost 1342.600637083442
